Maximize
	- 4 x2 - 1 x3 + 6 x4 
Maximize
	- 2 x1 - 2 x2 + 2 x3 + 1 x4 
Maximize
	+ 6 x2 - 3 x3 
Subject To
	+ 2 x3 - 3 x4 <= 5
	+ 2 x1 - 4 x2 + 3 x3 - 3 x4 <= 9
	+ 1 x2 - 2 x3 + 5 x4 <= 6
Bounds
	0 <= x1 <= 4
	0 <= x2 <= 4
	0 <= x3 <= 4
	0 <= x4 <= 4
Integers
	x1 x2 x3 x4 
End